(declare-fun bvlambda_3_ () (_ BitVec 1))
(declare-fun a39 () (Array (_ BitVec 1) (_ BitVec 13)))
(declare-fun a40 () (Array (_ BitVec 11) (_ BitVec 10)))
(assert
(let (($e7 (_ bv14 13)))
(let (($e8 (_ bv1908 13)))
(let (($e9 (_ bv14   11)))
(let (($e11 false    ))
(let (($e67         a40     ))
(let (($e69 (store a39 true        $e7)))
(let (($e72 (store $e69 bvlambda_3_        $e8 )))
(let (($e73 (select $e72 true       )))
                 (bvult $e7  $e73)
                                                                                                                                                                        ))  ) )                                            ) )))      )
